c Standarized MaxSat Instance
c{
c "sha1sum": "36ef5aa39258732487ea55f55ccc1f98429cc7ef",
c "nvars": 200,
c "ncls": 2190,
c "total_lits": 4180,
c "nhards": 1990,
c "nhard_nlits": 3980,
c "nhard_len_stats":
c    { "min": 2,
c      "max": 2,
c      "ave": 2.0000,
c      "stddev": 0.0000 },
c "nsofts": 200,
c "nsoft_nlits": 200,
c "nsoft_len_stats":
c    { "min": 1,
c      "max": 1,
c      "ave": 1.0000,
c      "stddev": 0.0000 },
c "nsoft_wts": 1,
c "soft_wt_stats":
c    { "min": 1,
c      "max": 1,
c      "ave": 1.0000,
c      "stddev": 0.0000 }
c}
c------------------------------------------------------------
c File:  san200_0.9_1.clq
c
c SOURCE: Laura Sanchis (laura@cs.colgate.edu)
c
c REFERENCE: "Test Case Construction for the Vertex Cover Problem", 
c DIMACS Workshop on Computational Support for Discrete Mathematics, 
c March, 1992, with additional work in a to be published technical
c report.
c
c 200 vertices 17910 edges 70 max clique
c 200 1990 130 5679 533826 25
c PSEUDOBOOLEAN 200
1 -1 0
1 -2 0
1 -3 0
1 -4 0
1 -5 0
1 -6 0
1 -7 0
1 -8 0
1 -9 0
1 -10 0
1 -11 0
1 -12 0
1 -13 0
1 -14 0
1 -15 0
1 -16 0
1 -17 0
1 -18 0
1 -19 0
1 -20 0
1 -21 0
1 -22 0
1 -23 0
1 -24 0
1 -25 0
1 -26 0
1 -27 0
1 -28 0
1 -29 0
1 -30 0
1 -31 0
1 -32 0
1 -33 0
1 -34 0
1 -35 0
1 -36 0
1 -37 0
1 -38 0
1 -39 0
1 -40 0
1 -41 0
1 -42 0
1 -43 0
1 -44 0
1 -45 0
1 -46 0
1 -47 0
1 -48 0
1 -49 0
1 -50 0
1 -51 0
1 -52 0
1 -53 0
1 -54 0
1 -55 0
1 -56 0
1 -57 0
1 -58 0
1 -59 0
1 -60 0
1 -61 0
1 -62 0
1 -63 0
1 -64 0
1 -65 0
1 -66 0
1 -67 0
1 -68 0
1 -69 0
1 -70 0
1 -71 0
1 -72 0
1 -73 0
1 -74 0
1 -75 0
1 -76 0
1 -77 0
1 -78 0
1 -79 0
1 -80 0
1 -81 0
1 -82 0
1 -83 0
1 -84 0
1 -85 0
1 -86 0
1 -87 0
1 -88 0
1 -89 0
1 -90 0
1 -91 0
1 -92 0
1 -93 0
1 -94 0
1 -95 0
1 -96 0
1 -97 0
1 -98 0
1 -99 0
1 -100 0
1 -101 0
1 -102 0
1 -103 0
1 -104 0
1 -105 0
1 -106 0
1 -107 0
1 -108 0
1 -109 0
1 -110 0
1 -111 0
1 -112 0
1 -113 0
1 -114 0
1 -115 0
1 -116 0
1 -117 0
1 -118 0
1 -119 0
1 -120 0
1 -121 0
1 -122 0
1 -123 0
1 -124 0
1 -125 0
1 -126 0
1 -127 0
1 -128 0
1 -129 0
1 -130 0
1 -131 0
1 -132 0
1 -133 0
1 -134 0
1 -135 0
1 -136 0
1 -137 0
1 -138 0
1 -139 0
1 -140 0
1 -141 0
1 -142 0
1 -143 0
1 -144 0
1 -145 0
1 -146 0
1 -147 0
1 -148 0
1 -149 0
1 -150 0
1 -151 0
1 -152 0
1 -153 0
1 -154 0
1 -155 0
1 -156 0
1 -157 0
1 -158 0
1 -159 0
1 -160 0
1 -161 0
1 -162 0
1 -163 0
1 -164 0
1 -165 0
1 -166 0
1 -167 0
1 -168 0
1 -169 0
1 -170 0
1 -171 0
1 -172 0
1 -173 0
1 -174 0
1 -175 0
1 -176 0
1 -177 0
1 -178 0
1 -179 0
1 -180 0
1 -181 0
1 -182 0
1 -183 0
1 -184 0
1 -185 0
1 -186 0
1 -187 0
1 -188 0
1 -189 0
1 -190 0
1 -191 0
1 -192 0
1 -193 0
1 -194 0
1 -195 0
1 -196 0
1 -197 0
1 -198 0
1 -199 0
1 -200 0
h 1 3 0
h 1 13 0
h 1 37 0
h 1 81 0
h 1 88 0
h 1 96 0
h 1 102 0
h 1 103 0
h 1 111 0
h 1 112 0
h 1 115 0
h 1 117 0
h 1 122 0
h 1 126 0
h 1 132 0
h 1 150 0
h 1 152 0
h 1 157 0
h 1 166 0
h 1 180 0
h 2 13 0
h 2 25 0
h 2 29 0
h 2 37 0
h 2 46 0
h 2 57 0
h 2 83 0
h 2 84 0
h 2 97 0
h 2 115 0
h 2 123 0
h 2 132 0
h 2 139 0
h 2 166 0
h 2 174 0
h 2 180 0
h 2 199 0
h 3 9 0
h 3 15 0
h 3 16 0
h 3 17 0
h 3 38 0
h 3 48 0
h 3 61 0
h 3 81 0
h 3 115 0
h 3 117 0
h 3 138 0
h 3 167 0
h 3 174 0
h 3 180 0
h 3 184 0
h 3 193 0
h 3 195 0
h 4 22 0
h 4 27 0
h 4 39 0
h 4 40 0
h 4 53 0
h 4 55 0
h 4 62 0
h 4 80 0
h 4 85 0
h 4 92 0
h 4 99 0
h 4 123 0
h 4 125 0
h 4 134 0
h 4 136 0
h 4 161 0
h 4 165 0
h 4 172 0
h 4 176 0
h 4 182 0
h 4 189 0
h 4 191 0
h 4 198 0
h 5 9 0
h 5 29 0
h 5 36 0
h 5 37 0
h 5 44 0
h 5 84 0
h 5 87 0
h 5 103 0
h 5 116 0
h 5 150 0
h 5 180 0
h 5 184 0
h 5 197 0
h 6 11 0
h 6 15 0
h 6 16 0
h 6 44 0
h 6 48 0
h 6 52 0
h 6 53 0
h 6 61 0
h 6 81 0
h 6 102 0
h 6 108 0
h 6 138 0
h 6 140 0
h 6 147 0
h 6 150 0
h 6 157 0
h 6 167 0
h 6 187 0
h 6 193 0
h 6 197 0
h 7 17 0
h 7 29 0
h 7 42 0
h 7 44 0
h 7 49 0
h 7 52 0
h 7 73 0
h 7 75 0
h 7 79 0
h 7 101 0
h 7 115 0
h 7 118 0
h 7 126 0
h 7 127 0
h 7 150 0
h 8 36 0
h 8 37 0
h 8 42 0
h 8 73 0
h 8 79 0
h 8 96 0
h 8 112 0
h 8 115 0
h 8 118 0
h 8 124 0
h 8 126 0
h 8 132 0
h 8 133 0
h 8 150 0
h 8 154 0
h 8 180 0
h 8 184 0
h 8 197 0
h 8 199 0
h 9 30 0
h 9 31 0
h 9 32 0
h 9 77 0
h 9 79 0
h 9 119 0
h 9 128 0
h 9 140 0
h 9 148 0
h 9 155 0
h 9 159 0
h 9 160 0
h 9 163 0
h 9 164 0
h 9 170 0
h 9 171 0
h 9 172 0
h 9 189 0
h 9 190 0
h 10 11 0
h 10 15 0
h 10 16 0
h 10 33 0
h 10 37 0
h 10 42 0
h 10 43 0
h 10 69 0
h 10 96 0
h 10 101 0
h 10 110 0
h 10 112 0
h 10 114 0
h 10 115 0
h 10 125 0
h 10 153 0
h 10 154 0
h 10 162 0
h 10 167 0
h 10 184 0
h 10 187 0
h 10 195 0
h 10 200 0
h 11 14 0
h 11 17 0
h 11 18 0
h 11 30 0
h 11 31 0
h 11 41 0
h 11 63 0
h 11 82 0
h 11 85 0
h 11 86 0
h 11 95 0
h 11 97 0
h 11 100 0
h 11 106 0
h 11 113 0
h 11 117 0
h 11 133 0
h 11 134 0
h 11 148 0
h 11 175 0
h 11 181 0
h 12 23 0
h 12 25 0
h 12 26 0
h 12 31 0
h 12 58 0
h 12 68 0
h 12 87 0
h 12 94 0
h 12 106 0
h 12 109 0
h 12 117 0
h 12 127 0
h 12 134 0
h 12 143 0
h 12 144 0
h 12 150 0
h 12 163 0
h 12 170 0
h 12 176 0
h 12 188 0
h 12 193 0
h 13 20 0
h 13 26 0
h 13 32 0
h 13 45 0
h 13 47 0
h 13 54 0
h 13 62 0
h 13 64 0
h 13 89 0
h 13 91 0
h 13 92 0
h 13 100 0
h 13 104 0
h 13 112 0
h 13 121 0
h 13 131 0
h 13 140 0
h 13 151 0
h 13 173 0
h 13 183 0
h 13 195 0
h 13 198 0
h 14 16 0
h 14 29 0
h 14 33 0
h 14 52 0
h 14 61 0
h 14 71 0
h 14 85 0
h 14 125 0
h 14 162 0
h 14 167 0
h 14 169 0
h 14 183 0
h 15 18 0
h 15 19 0
h 15 41 0
h 15 51 0
h 15 58 0
h 15 59 0
h 15 67 0
h 15 86 0
h 15 90 0
h 15 91 0
h 15 101 0
h 15 124 0
h 15 127 0
h 15 128 0
h 15 133 0
h 15 134 0
h 15 135 0
h 15 141 0
h 15 152 0
h 15 177 0
h 15 178 0
h 15 191 0
h 15 196 0
h 16 19 0
h 16 41 0
h 16 50 0
h 16 63 0
h 16 64 0
h 16 76 0
h 16 83 0
h 16 87 0
h 16 89 0
h 16 90 0
h 16 91 0
h 16 95 0
h 16 106 0
h 16 117 0
h 16 130 0
h 16 131 0
h 16 133 0
h 16 137 0
h 16 141 0
h 16 156 0
h 16 157 0
h 16 181 0
h 16 191 0
h 16 197 0
h 17 19 0
h 17 22 0
h 17 30 0
h 17 34 0
h 17 40 0
h 17 45 0
h 17 53 0
h 17 60 0
h 17 78 0
h 17 80 0
h 17 87 0
h 17 97 0
h 17 106 0
h 17 113 0
h 17 114 0
h 17 151 0
h 17 159 0
h 17 160 0
h 17 171 0
h 18 21 0
h 18 24 0
h 18 41 0
h 18 94 0
h 18 102 0
h 18 125 0
h 18 146 0
h 18 157 0
h 18 158 0
h 18 186 0
h 18 193 0
h 19 21 0
h 19 67 0
h 19 92 0
h 19 111 0
h 19 115 0
h 19 123 0
h 19 150 0
h 19 153 0
h 19 180 0
h 19 184 0
h 20 48 0
h 20 56 0
h 20 61 0
h 20 79 0
h 20 105 0
h 20 122 0
h 20 146 0
h 20 147 0
h 20 158 0
h 20 187 0
h 20 199 0
h 20 200 0
h 21 25 0
h 21 34 0
h 21 35 0
h 21 47 0
h 21 49 0
h 21 59 0
h 21 74 0
h 21 75 0
h 21 83 0
h 21 86 0
h 21 87 0
h 21 89 0
h 21 90 0
h 21 91 0
h 21 98 0
h 21 99 0
h 21 114 0
h 21 115 0
h 21 116 0
h 21 127 0
h 21 128 0
h 21 129 0
h 21 130 0
h 21 133 0
h 21 134 0
h 21 137 0
h 21 140 0
h 21 144 0
h 21 161 0
h 21 177 0
h 21 182 0
h 21 190 0
h 21 192 0
h 22 36 0
h 22 46 0
h 22 49 0
h 22 52 0
h 22 79 0
h 22 97 0
h 22 99 0
h 22 103 0
h 22 105 0
h 22 115 0
h 22 132 0
h 22 139 0
h 22 144 0
h 22 149 0
h 22 169 0
h 22 199 0
h 23 29 0
h 23 37 0
h 23 46 0
h 23 52 0
h 23 79 0
h 23 81 0
h 23 84 0
h 23 95 0
h 23 118 0
h 23 126 0
h 23 132 0
h 23 138 0
h 23 139 0
h 23 150 0
h 23 166 0
h 23 174 0
h 23 181 0
h 23 199 0
h 24 30 0
h 24 47 0
h 24 55 0
h 24 64 0
h 24 67 0
h 24 72 0
h 24 78 0
h 24 84 0
h 24 89 0
h 24 99 0
h 24 106 0
h 24 107 0
h 24 116 0
h 24 117 0
h 24 131 0
h 24 133 0
h 24 144 0
h 24 145 0
h 24 148 0
h 24 154 0
h 24 161 0
h 24 178 0
h 24 185 0
h 24 191 0
h 25 29 0
h 25 48 0
h 25 61 0
h 25 79 0
h 25 83 0
h 25 101 0
h 25 105 0
h 25 111 0
h 25 125 0
h 25 126 0
h 25 132 0
h 25 162 0
h 25 164 0
h 25 174 0
h 25 179 0
h 26 29 0
h 26 36 0
h 26 37 0
h 26 42 0
h 26 49 0
h 26 64 0
h 26 70 0
h 26 79 0
h 26 84 0
h 26 97 0
h 26 101 0
h 26 105 0
h 26 118 0
h 26 126 0
h 26 150 0
h 26 153 0
h 26 157 0
h 26 169 0
h 26 184 0
h 26 194 0
h 27 44 0
h 27 46 0
h 27 50 0
h 27 57 0
h 27 58 0
h 27 88 0
h 27 115 0
h 27 122 0
h 27 139 0
h 27 149 0
h 27 154 0
h 27 174 0
h 28 37 0
h 28 60 0
h 28 79 0
h 28 147 0
h 28 174 0
h 28 187 0
h 28 193 0
h 28 195 0
h 29 30 0
h 29 32 0
h 29 35 0
h 29 39 0
h 29 40 0
h 29 55 0
h 29 58 0
h 29 60 0
h 29 62 0
h 29 68 0
h 29 92 0
h 29 93 0
h 29 99 0
h 29 113 0
h 29 143 0
h 29 148 0
h 29 151 0
h 29 155 0
h 29 160 0
h 29 161 0
h 29 175 0
h 29 176 0
h 29 184 0
h 29 186 0
h 29 191 0
h 30 43 0
h 30 46 0
h 30 48 0
h 30 57 0
h 30 79 0
h 30 103 0
h 30 105 0
h 30 108 0
h 30 110 0
h 30 115 0
h 30 125 0
h 30 146 0
h 30 164 0
h 30 166 0
h 30 167 0
h 30 176 0
h 30 180 0
h 31 46 0
h 31 57 0
h 31 59 0
h 31 61 0
h 31 81 0
h 31 101 0
h 31 108 0
h 31 110 0
h 31 153 0
h 31 167 0
h 31 172 0
h 31 179 0
h 31 194 0
h 32 46 0
h 32 88 0
h 32 102 0
h 32 112 0
h 32 118 0
h 32 131 0
h 32 138 0
h 32 139 0
h 32 150 0
h 32 152 0
h 32 166 0
h 32 169 0
h 32 177 0
h 32 184 0
h 32 194 0
h 33 34 0
h 33 45 0
h 33 47 0
h 33 55 0
h 33 58 0
h 33 59 0
h 33 63 0
h 33 67 0
h 33 75 0
h 33 85 0
h 33 87 0
h 33 90 0
h 33 91 0
h 33 98 0
h 33 100 0
h 33 118 0
h 33 133 0
h 33 144 0
h 33 156 0
h 33 161 0
h 33 169 0
h 33 196 0
h 34 73 0
h 34 91 0
h 34 96 0
h 34 108 0
h 34 115 0
h 34 146 0
h 34 149 0
h 34 157 0
h 34 158 0
h 34 184 0
h 34 195 0
h 34 198 0
h 35 61 0
h 35 63 0
h 35 77 0
h 35 79 0
h 35 96 0
h 35 112 0
h 35 115 0
h 35 132 0
h 35 138 0
h 35 147 0
h 35 162 0
h 35 164 0
h 35 167 0
h 35 193 0
h 36 53 0
h 36 56 0
h 36 59 0
h 36 60 0
h 36 67 0
h 36 85 0
h 36 91 0
h 36 92 0
h 36 93 0
h 36 98 0
h 36 104 0
h 36 124 0
h 36 131 0
h 36 147 0
h 36 149 0
h 36 155 0
h 36 159 0
h 36 160 0
h 36 163 0
h 36 165 0
h 36 170 0
h 36 171 0
h 36 172 0
h 36 175 0
h 37 43 0
h 37 58 0
h 37 60 0
h 37 63 0
h 37 69 0
h 37 90 0
h 37 94 0
h 37 95 0
h 37 114 0
h 37 120 0
h 37 137 0
h 37 142 0
h 37 143 0
h 37 148 0
h 37 165 0
h 37 179 0
h 37 185 0
h 37 189 0
h 38 50 0
h 38 59 0
h 38 66 0
h 38 72 0
h 38 85 0
h 38 89 0
h 38 106 0
h 38 107 0
h 38 122 0
h 38 130 0
h 38 131 0
h 38 133 0
h 38 140 0
h 38 141 0
h 38 143 0
h 38 144 0
h 38 178 0
h 38 185 0
h 38 199 0
h 39 44 0
h 39 45 0
h 39 46 0
h 39 49 0
h 39 57 0
h 39 84 0
h 39 97 0
h 39 101 0
h 39 102 0
h 39 103 0
h 39 118 0
h 39 123 0
h 39 126 0
h 39 153 0
h 39 175 0
h 39 184 0
h 40 44 0
h 40 57 0
h 40 73 0
h 40 97 0
h 40 102 0
h 40 115 0
h 40 122 0
h 40 126 0
h 40 138 0
h 40 149 0
h 40 191 0
h 41 49 0
h 41 94 0
h 41 110 0
h 41 112 0
h 41 146 0
h 41 169 0
h 41 187 0
h 41 199 0
h 42 46 0
h 42 54 0
h 42 58 0
h 42 60 0
h 42 62 0
h 42 66 0
h 42 72 0
h 42 85 0
h 42 93 0
h 42 109 0
h 42 124 0
h 42 129 0
h 42 135 0
h 42 137 0
h 42 140 0
h 42 151 0
h 42 155 0
h 42 160 0
h 42 163 0
h 42 165 0
h 42 167 0
h 42 171 0
h 42 177 0
h 42 181 0
h 43 55 0
h 43 58 0
h 43 59 0
h 43 63 0
h 43 74 0
h 43 76 0
h 43 90 0
h 43 99 0
h 43 100 0
h 43 106 0
h 43 117 0
h 43 133 0
h 43 135 0
h 43 140 0
h 43 145 0
h 43 148 0
h 43 156 0
h 43 175 0
h 43 179 0
h 43 188 0
h 43 190 0
h 44 67 0
h 44 105 0
h 44 108 0
h 44 113 0
h 44 121 0
h 44 137 0
h 44 163 0
h 44 165 0
h 44 170 0
h 44 175 0
h 44 185 0
h 45 103 0
h 45 108 0
h 45 110 0
h 45 112 0
h 45 125 0
h 45 126 0
h 45 150 0
h 45 174 0
h 45 175 0
h 45 180 0
h 45 187 0
h 45 197 0
h 46 47 0
h 46 50 0
h 46 53 0
h 46 62 0
h 46 64 0
h 46 68 0
h 46 76 0
h 46 80 0
h 46 90 0
h 46 92 0
h 46 93 0
h 46 104 0
h 46 109 0
h 46 117 0
h 46 120 0
h 46 131 0
h 46 133 0
h 46 135 0
h 46 142 0
h 46 145 0
h 46 148 0
h 46 151 0
h 46 159 0
h 46 167 0
h 46 168 0
h 46 170 0
h 46 172 0
h 46 182 0
h 46 185 0
h 46 189 0
h 46 198 0
h 47 52 0
h 47 62 0
h 47 88 0
h 47 108 0
h 47 146 0
h 47 156 0
h 47 187 0
h 47 200 0
h 48 50 0
h 48 55 0
h 48 67 0
h 48 70 0
h 48 75 0
h 48 76 0
h 48 82 0
h 48 87 0
h 48 114 0
h 48 116 0
h 48 124 0
h 48 129 0
h 48 143 0
h 48 174 0
h 48 180 0
h 48 181 0
h 48 192 0
h 48 196 0
h 49 58 0
h 49 59 0
h 49 68 0
h 49 69 0
h 49 76 0
h 49 78 0
h 49 94 0
h 49 95 0
h 49 109 0
h 49 113 0
h 49 115 0
h 49 117 0
h 49 128 0
h 49 133 0
h 49 135 0
h 49 142 0
h 49 151 0
h 49 160 0
h 49 171 0
h 49 173 0
h 49 181 0
h 49 196 0
h 50 58 0
h 50 79 0
h 50 88 0
h 50 110 0
h 50 149 0
h 50 150 0
h 50 162 0
h 51 110 0
h 51 111 0
h 51 118 0
h 51 125 0
h 51 126 0
h 51 150 0
h 51 152 0
h 51 158 0
h 51 159 0
h 51 164 0
h 51 199 0
h 51 200 0
h 52 53 0
h 52 54 0
h 52 56 0
h 52 58 0
h 52 64 0
h 52 86 0
h 52 91 0
h 52 99 0
h 52 120 0
h 52 128 0
h 52 141 0
h 52 155 0
h 52 183 0
h 52 185 0
h 52 189 0
h 52 192 0
h 52 194 0
h 52 200 0
h 53 97 0
h 53 101 0
h 53 112 0
h 53 115 0
h 53 123 0
h 53 132 0
h 53 138 0
h 53 140 0
h 53 152 0
h 53 153 0
h 53 166 0
h 53 180 0
h 53 184 0
h 54 57 0
h 54 79 0
h 54 84 0
h 54 86 0
h 54 102 0
h 54 112 0
h 54 132 0
h 54 138 0
h 54 139 0
h 54 150 0
h 54 152 0
h 54 184 0
h 54 199 0
h 55 61 0
h 55 73 0
h 55 102 0
h 55 104 0
h 55 110 0
h 55 118 0
h 55 125 0
h 55 128 0
h 55 132 0
h 55 147 0
h 55 149 0
h 55 153 0
h 55 157 0
h 55 162 0
h 55 195 0
h 56 88 0
h 56 102 0
h 56 111 0
h 56 112 0
h 56 118 0
h 56 132 0
h 56 180 0
h 56 194 0
h 57 80 0
h 57 81 0
h 57 85 0
h 57 114 0
h 57 119 0
h 57 124 0
h 57 134 0
h 57 136 0
h 57 140 0
h 57 146 0
h 57 160 0
h 57 165 0
h 57 170 0
h 57 181 0
h 57 183 0
h 57 188 0
h 57 189 0
h 57 192 0
h 58 103 0
h 58 105 0
h 58 110 0
h 58 115 0
h 58 125 0
h 58 132 0
h 58 146 0
h 58 158 0
h 58 169 0
h 58 184 0
h 58 186 0
h 58 193 0
h 59 61 0
h 59 71 0
h 59 84 0
h 59 97 0
h 59 108 0
h 59 110 0
h 59 125 0
h 59 132 0
h 59 146 0
h 59 147 0
h 59 153 0
h 59 158 0
h 59 164 0
h 59 172 0
h 59 174 0
h 59 186 0
h 60 81 0
h 60 84 0
h 60 88 0
h 60 97 0
h 60 101 0
h 60 103 0
h 60 111 0
h 60 126 0
h 60 154 0
h 60 166 0
h 60 179 0
h 60 199 0
h 61 64 0
h 61 65 0
h 61 70 0
h 61 72 0
h 61 73 0
h 61 74 0
h 61 82 0
h 61 85 0
h 61 89 0
h 61 100 0
h 61 116 0
h 61 117 0
h 61 127 0
h 61 135 0
h 61 144 0
h 61 153 0
h 61 177 0
h 62 84 0
h 62 139 0
h 62 150 0
h 62 153 0
h 62 156 0
h 62 169 0
h 63 73 0
h 63 77 0
h 63 79 0
h 63 102 0
h 63 139 0
h 63 146 0
h 63 158 0
h 63 179 0
h 63 180 0
h 63 184 0
h 63 187 0
h 63 193 0
h 64 70 0
h 64 101 0
h 64 112 0
h 64 138 0
h 64 146 0
h 64 157 0
h 64 164 0
h 64 167 0
h 64 169 0
h 64 180 0
h 65 71 0
h 65 108 0
h 65 109 0
h 65 132 0
h 65 146 0
h 65 147 0
h 65 154 0
h 65 180 0
h 65 194 0
h 65 200 0
h 66 84 0
h 66 88 0
h 66 119 0
h 66 123 0
h 66 139 0
h 66 153 0
h 66 162 0
h 66 169 0
h 66 185 0
h 66 187 0
h 66 195 0
h 66 199 0
h 67 92 0
h 67 97 0
h 67 102 0
h 67 105 0
h 67 146 0
h 67 147 0
h 67 150 0
h 67 167 0
h 67 179 0
h 67 194 0
h 68 73 0
h 68 78 0
h 68 79 0
h 68 102 0
h 68 103 0
h 68 122 0
h 68 132 0
h 68 137 0
h 68 150 0
h 68 157 0
h 68 169 0
h 68 184 0
h 68 199 0
h 69 79 0
h 69 84 0
h 69 97 0
h 69 101 0
h 69 103 0
h 69 105 0
h 69 111 0
h 69 114 0
h 69 132 0
h 69 149 0
h 69 153 0
h 69 157 0
h 69 169 0
h 69 179 0
h 69 194 0
h 69 199 0
h 70 71 0
h 70 88 0
h 70 108 0
h 70 110 0
h 70 147 0
h 70 162 0
h 70 167 0
h 70 179 0
h 70 184 0
h 70 187 0
h 70 193 0
h 71 83 0
h 71 85 0
h 71 87 0
h 71 89 0
h 71 91 0
h 71 100 0
h 71 106 0
h 71 111 0
h 71 124 0
h 71 133 0
h 71 135 0
h 71 141 0
h 71 143 0
h 71 166 0
h 71 168 0
h 71 181 0
h 71 185 0
h 72 112 0
h 72 123 0
h 72 125 0
h 72 130 0
h 72 146 0
h 72 147 0
h 72 151 0
h 72 152 0
h 72 157 0
h 72 166 0
h 72 167 0
h 72 194 0
h 72 195 0
h 72 199 0
h 73 80 0
h 73 104 0
h 73 106 0
h 73 119 0
h 73 121 0
h 73 136 0
h 73 137 0
h 73 153 0
h 73 163 0
h 73 176 0
h 73 182 0
h 73 185 0
h 73 190 0
h 74 84 0
h 74 98 0
h 74 132 0
h 74 147 0
h 74 155 0
h 74 158 0
h 74 167 0
h 74 195 0
h 75 111 0
h 75 125 0
h 75 127 0
h 75 166 0
h 75 186 0
h 75 193 0
h 75 194 0
h 76 96 0
h 76 108 0
h 76 125 0
h 76 152 0
h 76 158 0
h 76 168 0
h 76 169 0
h 76 171 0
h 76 193 0
h 77 79 0
h 77 102 0
h 77 123 0
h 77 132 0
h 77 139 0
h 77 153 0
h 77 180 0
h 77 197 0
h 78 110 0
h 78 137 0
h 78 139 0
h 78 146 0
h 78 147 0
h 78 166 0
h 78 174 0
h 78 193 0
h 78 197 0
h 79 80 0
h 79 82 0
h 79 92 0
h 79 99 0
h 79 104 0
h 79 106 0
h 79 114 0
h 79 120 0
h 79 130 0
h 79 135 0
h 79 142 0
h 79 148 0
h 79 156 0
h 79 160 0
h 79 164 0
h 79 177 0
h 79 189 0
h 79 198 0
h 80 81 0
h 80 84 0
h 80 101 0
h 80 103 0
h 80 112 0
h 80 132 0
h 80 138 0
h 80 139 0
h 80 152 0
h 80 154 0
h 80 166 0
h 80 174 0
h 80 179 0
h 80 188 0
h 80 197 0
h 81 92 0
h 81 94 0
h 81 109 0
h 81 124 0
h 81 136 0
h 81 137 0
h 81 142 0
h 81 145 0
h 81 146 0
h 81 151 0
h 81 155 0
h 81 159 0
h 81 160 0
h 81 161 0
h 81 165 0
h 81 170 0
h 81 183 0
h 82 106 0
h 82 153 0
h 82 158 0
h 82 167 0
h 82 186 0
h 82 189 0
h 83 138 0
h 83 153 0
h 83 154 0
h 83 157 0
h 83 200 0
h 84 98 0
h 84 100 0
h 84 109 0
h 84 127 0
h 84 129 0
h 84 136 0
h 84 143 0
h 84 151 0
h 84 154 0
h 84 170 0
h 84 171 0
h 84 176 0
h 84 181 0
h 84 191 0
h 85 103 0
h 85 115 0
h 85 132 0
h 85 139 0
h 85 154 0
h 85 164 0
h 85 167 0
h 85 180 0
h 85 183 0
h 85 186 0
h 85 187 0
h 85 195 0
h 86 102 0
h 86 105 0
h 86 110 0
h 86 154 0
h 86 164 0
h 86 197 0
h 87 101 0
h 87 116 0
h 87 146 0
h 87 164 0
h 87 187 0
h 88 93 0
h 88 95 0
h 88 96 0
h 88 104 0
h 88 110 0
h 88 114 0
h 88 119 0
h 88 127 0
h 88 128 0
h 88 140 0
h 88 142 0
h 88 143 0
h 88 151 0
h 88 155 0
h 88 159 0
h 88 171 0
h 89 93 0
h 89 143 0
h 89 146 0
h 89 147 0
h 89 154 0
h 89 158 0
h 89 166 0
h 89 167 0
h 89 169 0
h 89 179 0
h 89 184 0
h 89 193 0
h 89 195 0
h 90 102 0
h 90 105 0
h 90 146 0
h 90 160 0
h 90 161 0
h 90 180 0
h 91 96 0
h 91 108 0
h 91 110 0
h 91 115 0
h 91 125 0
h 91 146 0
h 91 152 0
h 91 154 0
h 91 186 0
h 91 187 0
h 91 193 0
h 91 197 0
h 91 198 0
h 92 101 0
h 92 111 0
h 92 112 0
h 92 149 0
h 92 150 0
h 92 179 0
h 93 97 0
h 93 111 0
h 93 112 0
h 93 115 0
h 93 132 0
h 93 143 0
h 93 149 0
h 93 150 0
h 93 153 0
h 93 154 0
h 93 184 0
h 93 194 0
h 94 111 0
h 94 115 0
h 94 126 0
h 94 132 0
h 94 139 0
h 94 149 0
h 94 150 0
h 94 154 0
h 94 166 0
h 94 180 0
h 94 197 0
h 94 199 0
h 95 108 0
h 95 138 0
h 95 147 0
h 95 152 0
h 95 153 0
h 95 157 0
h 95 181 0
h 95 193 0
h 96 110 0
h 96 120 0
h 96 124 0
h 96 129 0
h 96 163 0
h 96 165 0
h 96 171 0
h 96 172 0
h 96 189 0
h 96 191 0
h 97 107 0
h 97 109 0
h 97 130 0
h 97 136 0
h 97 141 0
h 97 145 0
h 97 160 0
h 97 171 0
h 97 172 0
h 97 177 0
h 97 191 0
h 97 192 0
h 97 198 0
h 98 103 0
h 98 118 0
h 98 123 0
h 98 132 0
h 98 146 0
h 98 150 0
h 98 155 0
h 98 187 0
h 99 101 0
h 99 132 0
h 99 144 0
h 99 146 0
h 99 158 0
h 99 164 0
h 99 184 0
h 100 139 0
h 100 163 0
h 100 164 0
h 100 193 0
h 100 196 0
h 101 109 0
h 101 120 0
h 101 141 0
h 101 152 0
h 101 160 0
h 101 165 0
h 101 173 0
h 101 176 0
h 101 178 0
h 101 183 0
h 101 188 0
h 101 189 0
h 101 191 0
h 102 103 0
h 102 109 0
h 102 113 0
h 102 129 0
h 102 133 0
h 102 142 0
h 102 144 0
h 102 151 0
h 102 158 0
h 102 159 0
h 102 171 0
h 102 172 0
h 102 173 0
h 102 191 0
h 102 192 0
h 102 196 0
h 103 117 0
h 103 120 0
h 103 136 0
h 103 142 0
h 103 158 0
h 103 163 0
h 103 165 0
h 103 170 0
h 103 173 0
h 103 185 0
h 103 198 0
h 104 118 0
h 104 123 0
h 104 126 0
h 104 128 0
h 104 139 0
h 104 157 0
h 104 169 0
h 104 174 0
h 104 194 0
h 104 197 0
h 105 108 0
h 105 109 0
h 105 113 0
h 105 136 0
h 105 143 0
h 105 163 0
h 105 165 0
h 105 170 0
h 105 176 0
h 105 183 0
h 105 190 0
h 105 191 0
h 105 198 0
h 106 122 0
h 106 139 0
h 106 167 0
h 106 180 0
h 106 186 0
h 106 187 0
h 106 189 0
h 106 193 0
h 107 113 0
h 107 115 0
h 107 118 0
h 107 126 0
h 107 142 0
h 107 154 0
h 108 117 0
h 108 124 0
h 108 128 0
h 108 129 0
h 108 134 0
h 108 137 0
h 108 140 0
h 108 141 0
h 108 161 0
h 108 178 0
h 108 191 0
h 108 192 0
h 108 196 0
h 109 115 0
h 109 122 0
h 109 123 0
h 109 139 0
h 109 157 0
h 109 179 0
h 109 197 0
h 109 199 0
h 110 117 0
h 110 127 0
h 110 128 0
h 110 129 0
h 110 130 0
h 110 131 0
h 110 145 0
h 110 181 0
h 110 190 0
h 111 119 0
h 111 130 0
h 111 136 0
h 111 144 0
h 111 151 0
h 111 155 0
h 111 160 0
h 111 166 0
h 111 170 0
h 111 188 0
h 111 198 0
h 112 114 0
h 112 119 0
h 112 120 0
h 112 128 0
h 112 130 0
h 112 142 0
h 112 160 0
h 112 161 0
h 112 163 0
h 112 165 0
h 112 175 0
h 112 195 0
h 113 139 0
h 113 142 0
h 113 146 0
h 113 157 0
h 113 167 0
h 113 187 0
h 114 164 0
h 114 180 0
h 114 193 0
h 115 120 0
h 115 121 0
h 115 137 0
h 115 148 0
h 115 156 0
h 115 165 0
h 115 168 0
h 115 172 0
h 115 173 0
h 115 178 0
h 116 152 0
h 116 166 0
h 116 167 0
h 116 174 0
h 116 193 0
h 117 125 0
h 117 149 0
h 117 153 0
h 117 158 0
h 117 179 0
h 117 194 0
h 117 195 0
h 117 197 0
h 117 200 0
h 118 119 0
h 118 120 0
h 118 121 0
h 118 124 0
h 118 130 0
h 118 142 0
h 118 144 0
h 118 155 0
h 118 156 0
h 118 160 0
h 118 161 0
h 118 163 0
h 118 169 0
h 118 171 0
h 118 172 0
h 118 196 0
h 119 122 0
h 119 132 0
h 119 138 0
h 119 152 0
h 119 153 0
h 119 166 0
h 119 169 0
h 119 179 0
h 119 184 0
h 119 185 0
h 119 199 0
h 120 123 0
h 120 132 0
h 120 139 0
h 120 148 0
h 120 149 0
h 120 154 0
h 120 157 0
h 120 182 0
h 120 194 0
h 121 132 0
h 121 134 0
h 121 145 0
h 121 152 0
h 121 166 0
h 121 194 0
h 122 127 0
h 122 129 0
h 122 133 0
h 122 159 0
h 122 163 0
h 122 168 0
h 122 173 0
h 122 178 0
h 122 181 0
h 122 183 0
h 122 189 0
h 122 192 0
h 122 198 0
h 122 199 0
h 123 125 0
h 123 136 0
h 123 140 0
h 123 143 0
h 123 144 0
h 123 159 0
h 123 161 0
h 123 171 0
h 123 176 0
h 123 183 0
h 123 190 0
h 123 191 0
h 123 198 0
h 124 125 0
h 124 133 0
h 124 146 0
h 124 167 0
h 124 187 0
h 125 129 0
h 125 133 0
h 125 135 0
h 125 137 0
h 125 140 0
h 125 145 0
h 125 148 0
h 125 190 0
h 125 192 0
h 125 196 0
h 126 131 0
h 126 137 0
h 126 138 0
h 126 142 0
h 126 156 0
h 126 162 0
h 126 163 0
h 126 173 0
h 126 176 0
h 126 188 0
h 126 189 0
h 127 162 0
h 127 167 0
h 128 146 0
h 128 147 0
h 128 152 0
h 128 157 0
h 128 162 0
h 128 167 0
h 128 194 0
h 128 195 0
h 128 197 0
h 129 136 0
h 129 146 0
h 129 158 0
h 129 162 0
h 129 180 0
h 129 186 0
h 129 190 0
h 129 194 0
h 130 138 0
h 130 151 0
h 130 157 0
h 130 169 0
h 130 179 0
h 130 186 0
h 130 193 0
h 130 195 0
h 131 146 0
h 131 154 0
h 131 158 0
h 131 177 0
h 131 180 0
h 131 187 0
h 131 200 0
h 132 136 0
h 132 139 0
h 132 160 0
h 132 163 0
h 132 173 0
h 132 178 0
h 132 187 0
h 132 188 0
h 133 147 0
h 133 157 0
h 133 174 0
h 133 187 0
h 133 199 0
h 134 138 0
h 134 139 0
h 134 145 0
h 134 149 0
h 134 184 0
h 134 186 0
h 134 187 0
h 134 193 0
h 134 195 0
h 134 199 0
h 135 139 0
h 135 149 0
h 135 152 0
h 135 164 0
h 135 165 0
h 135 166 0
h 135 167 0
h 135 169 0
h 136 139 0
h 136 174 0
h 136 190 0
h 136 197 0
h 137 138 0
h 137 139 0
h 137 158 0
h 137 167 0
h 137 194 0
h 137 195 0
h 137 200 0
h 138 144 0
h 138 155 0
h 138 162 0
h 138 171 0
h 138 173 0
h 138 192 0
h 139 144 0
h 139 155 0
h 139 161 0
h 139 170 0
h 139 176 0
h 139 183 0
h 139 187 0
h 139 196 0
h 140 147 0
h 140 150 0
h 140 164 0
h 140 166 0
h 140 186 0
h 140 193 0
h 141 146 0
h 141 162 0
h 141 173 0
h 141 174 0
h 141 179 0
h 141 184 0
h 141 186 0
h 141 200 0
h 142 153 0
h 142 174 0
h 142 180 0
h 142 199 0
h 143 167 0
h 143 180 0
h 143 186 0
h 144 147 0
h 144 149 0
h 144 150 0
h 144 157 0
h 144 167 0
h 144 174 0
h 144 186 0
h 144 193 0
h 145 147 0
h 145 162 0
h 145 167 0
h 145 179 0
h 145 186 0
h 145 200 0
h 146 148 0
h 146 156 0
h 146 161 0
h 146 168 0
h 146 188 0
h 146 191 0
h 146 196 0
h 147 149 0
h 147 185 0
h 147 188 0
h 147 192 0
h 147 196 0
h 148 182 0
h 148 186 0
h 148 193 0
h 148 200 0
h 149 151 0
h 149 163 0
h 149 165 0
h 149 171 0
h 150 151 0
h 150 160 0
h 150 161 0
h 150 163 0
h 150 189 0
h 150 193 0
h 151 157 0
h 151 179 0
h 151 180 0
h 151 194 0
h 151 197 0
h 152 159 0
h 152 170 0
h 152 171 0
h 152 173 0
h 152 181 0
h 152 189 0
h 152 192 0
h 153 156 0
h 153 160 0
h 153 163 0
h 153 171 0
h 153 172 0
h 153 176 0
h 153 177 0
h 153 198 0
h 154 176 0
h 154 178 0
h 154 185 0
h 154 190 0
h 154 198 0
h 155 157 0
h 155 166 0
h 155 169 0
h 155 179 0
h 155 197 0
h 156 162 0
h 156 164 0
h 156 179 0
h 156 186 0
h 157 163 0
h 157 165 0
h 157 170 0
h 157 173 0
h 157 175 0
h 157 177 0
h 157 182 0
h 157 183 0
h 157 190 0
h 157 196 0
h 157 197 0
h 158 178 0
h 158 182 0
h 158 196 0
h 159 169 0
h 159 184 0
h 159 194 0
h 160 161 0
h 160 199 0
h 161 162 0
h 161 169 0
h 161 184 0
h 161 197 0
h 161 200 0
h 163 169 0
h 163 196 0
h 163 197 0
h 163 199 0
h 164 181 0
h 164 182 0
h 164 191 0
h 165 166 0
h 166 178 0
h 166 182 0
h 166 192 0
h 166 198 0
h 167 168 0
h 167 178 0
h 167 181 0
h 167 188 0
h 167 190 0
h 167 191 0
h 168 171 0
h 168 184 0
h 168 193 0
h 169 173 0
h 169 178 0
h 169 181 0
h 169 182 0
h 169 189 0
h 169 192 0
h 169 198 0
h 170 178 0
h 170 184 0
h 170 192 0
h 170 199 0
h 171 194 0
h 171 199 0
h 172 174 0
h 172 179 0
h 172 180 0
h 172 199 0
h 173 180 0
h 174 176 0
h 174 180 0
h 174 198 0
h 175 187 0
h 175 193 0
h 175 197 0
h 176 179 0
h 176 180 0
h 176 197 0
h 176 199 0
h 177 186 0
h 177 197 0
h 178 180 0
h 178 186 0
h 178 192 0
h 178 200 0
h 179 181 0
h 180 183 0
h 180 188 0
h 180 189 0
h 180 191 0
h 180 192 0
h 180 198 0
h 181 186 0
h 182 187 0
h 182 193 0
h 183 197 0
h 184 186 0
h 185 186 0
h 185 199 0
h 185 200 0
h 187 190 0
h 188 193 0
h 188 195 0
h 188 200 0
h 189 197 0
h 189 199 0
h 192 195 0
h 192 199 0
h 193 196 0
h 194 200 0
h 196 199 0
h 197 198 0
